(set-info :original "../sandbox/testgen_6/testgen_6.bc")
(set-info :authors "SeaHorn v.10.0.0-rc0")
(declare-rel verifier.error (Bool Bool Bool ))
(declare-rel main@_loop.bound ())
(declare-rel main@empty.loop (Int Int ))
(declare-rel main@_.01 (Int Int Int Int ))
(declare-rel main@_ret ())
(declare-var main@%SwitchLeaf_0 Bool )
(declare-var main@%SwitchLeaf2_0 Bool )
(declare-var main@%Pivot_0 Bool )
(declare-var main@%_9_0 Int )
(declare-var main@%_br6_0 Bool )
(declare-var main@%_br5_0 Bool )
(declare-var main@%_br_0 Bool )
(declare-var main@%nd.loop.cond_0 Bool )
(declare-var main@%_call_0 Bool )
(declare-var main@%_call4_0 Bool )
(declare-var main@_loop.bound_0 Bool )
(declare-var main@%loop.bound_0 Int )
(declare-var main@%loop.bound3_0 Int )
(declare-var main@empty.loop_0 Bool )
(declare-var main@empty.loop.body_0 Bool )
(declare-var main@empty.loop_1 Bool )
(declare-var main@_.01_0 Bool )
(declare-var main@%.01_0 Int )
(declare-var main@%.0_0 Int )
(declare-var main@%.01_1 Int )
(declare-var main@%.0_1 Int )
(declare-var main@_6_0 Bool )
(declare-var main@_8_0 Bool )
(declare-var main@_11_0 Bool )
(declare-var |tuple(main@_8_0, main@_11_0)| Bool )
(declare-var |tuple(main@_.01_0, main@_11_0)| Bool )
(declare-var main@%_br7_0 Int )
(declare-var main@_.1_0 Bool )
(declare-var |tuple(main@_8_0, main@_.1_0)| Bool )
(declare-var |tuple(main@_6_0, main@_.1_0)| Bool )
(declare-var main@%.1_0 Int )
(declare-var main@%.1_1 Int )
(declare-var main@%.1_2 Int )
(declare-var main@%.1_3 Int )
(declare-var main@%_br8_0 Int )
(declare-var main@NodeBlock_0 Bool )
(declare-var main@LeafBlock1_0 Bool )
(declare-var main@LeafBlock_0 Bool )
(declare-var main@NewDefault_0 Bool )
(declare-var |tuple(main@LeafBlock1_0, main@NewDefault_0)| Bool )
(declare-var |tuple(main@LeafBlock_0, main@NewDefault_0)| Bool )
(declare-var main@_15_0 Bool )
(declare-var main@%_br9_0 Int )
(declare-var main@_.01_1 Bool )
(declare-var main@%.01_2 Int )
(declare-var main@%.0_2 Int )
(declare-var main@_ret_0 Bool )
(declare-var |tuple(main@LeafBlock1_0, main@_ret_0)| Bool )
(declare-var |tuple(main@LeafBlock_0, main@_ret_0)| Bool )
(rule (verifier.error false false false))
(rule (verifier.error false true true))
(rule (verifier.error true false true))
(rule (verifier.error true true true))
(rule main@_loop.bound)
(rule (=> (and main@_loop.bound
         true
         (= main@%_call_0 (= main@%loop.bound_0 100000))
         main@%_call_0
         (= main@%_call4_0 (= main@%loop.bound3_0 (- 5000)))
         main@%_call4_0
         (=> main@empty.loop_0 (and main@empty.loop_0 main@_loop.bound_0))
         main@empty.loop_0)
    (main@empty.loop main@%loop.bound3_0 main@%loop.bound_0)))
(rule (=> (and (main@empty.loop main@%loop.bound3_0 main@%loop.bound_0)
         true
         (=> main@empty.loop.body_0
             (and main@empty.loop.body_0 main@empty.loop_0))
         (=> (and main@empty.loop.body_0 main@empty.loop_0)
             main@%nd.loop.cond_0)
         (=> main@empty.loop_1 (and main@empty.loop_1 main@empty.loop.body_0))
         main@empty.loop_1)
    (main@empty.loop main@%loop.bound3_0 main@%loop.bound_0)))
(rule (=> (and (main@empty.loop main@%loop.bound3_0 main@%loop.bound_0)
         true
         (=> main@_.01_0 (and main@_.01_0 main@empty.loop_0))
         (=> (and main@_.01_0 main@empty.loop_0) (not main@%nd.loop.cond_0))
         (=> (and main@_.01_0 main@empty.loop_0) (= main@%.01_0 90367))
         (=> (and main@_.01_0 main@empty.loop_0) (= main@%.0_0 61802))
         (=> (and main@_.01_0 main@empty.loop_0) (= main@%.01_1 main@%.01_0))
         (=> (and main@_.01_0 main@empty.loop_0) (= main@%.0_1 main@%.0_0))
         main@_.01_0)
    (main@_.01 main@%.01_1 main@%.0_1 main@%loop.bound3_0 main@%loop.bound_0)))
(rule (let ((a!1 (and (main@_.01 main@%.01_0
                           main@%.0_0
                           main@%loop.bound3_0
                           main@%loop.bound_0)
                true
                (= main@%_br_0 (> main@%.01_0 4))
                (=> main@_6_0 (and main@_6_0 main@_.01_0))
                (=> (and main@_6_0 main@_.01_0) (not main@%_br_0))
                (=> main@_6_0 (= main@%_br5_0 (= main@%.0_0 0)))
                (=> main@_8_0 (and main@_8_0 main@_6_0))
                (=> (and main@_8_0 main@_6_0) main@%_br5_0)
                (=> main@_8_0 (= main@%_9_0 (rem main@%.01_0 2)))
                (=> main@_8_0 (= main@%_br6_0 (= main@%_9_0 1)))
                (=> |tuple(main@_8_0, main@_11_0)| main@_8_0)
                (=> |tuple(main@_.01_0, main@_11_0)| main@_.01_0)
                (=> main@_11_0
                    (or |tuple(main@_8_0, main@_11_0)|
                        |tuple(main@_.01_0, main@_11_0)|))
                (=> |tuple(main@_8_0, main@_11_0)| main@%_br6_0)
                (=> |tuple(main@_.01_0, main@_11_0)| main@%_br_0)
                (=> main@_11_0 (= main@%_br7_0 (+ main@%.0_0 1)))
                (=> |tuple(main@_8_0, main@_.1_0)| main@_8_0)
                (=> |tuple(main@_6_0, main@_.1_0)| main@_6_0)
                (=> main@_.1_0
                    (or (and main@_.1_0 main@_11_0)
                        |tuple(main@_8_0, main@_.1_0)|
                        |tuple(main@_6_0, main@_.1_0)|))
                (=> |tuple(main@_8_0, main@_.1_0)| (not main@%_br6_0))
                (=> |tuple(main@_6_0, main@_.1_0)| (not main@%_br5_0))
                (=> (and main@_.1_0 main@_11_0) (= main@%.1_0 main@%_br7_0))
                (=> |tuple(main@_8_0, main@_.1_0)| (= main@%.1_1 0))
                (=> |tuple(main@_6_0, main@_.1_0)| (= main@%.1_2 main@%.0_0))
                (=> (and main@_.1_0 main@_11_0) (= main@%.1_3 main@%.1_0))
                (=> |tuple(main@_8_0, main@_.1_0)| (= main@%.1_3 main@%.1_1))
                (=> |tuple(main@_6_0, main@_.1_0)| (= main@%.1_3 main@%.1_2))
                (=> main@_.1_0 (= main@%_br8_0 (+ main@%.1_3 main@%.01_0)))
                (=> main@NodeBlock_0 (and main@NodeBlock_0 main@_.1_0))
                (=> main@NodeBlock_0 (= main@%Pivot_0 (< main@%_br8_0 100000)))
                (=> main@LeafBlock1_0 (and main@LeafBlock1_0 main@NodeBlock_0))
                (=> (and main@LeafBlock1_0 main@NodeBlock_0)
                    (not main@%Pivot_0))
                (=> main@LeafBlock1_0
                    (= main@%SwitchLeaf2_0 (= main@%_br8_0 main@%loop.bound_0)))
                (=> main@LeafBlock_0 (and main@LeafBlock_0 main@NodeBlock_0))
                (=> (and main@LeafBlock_0 main@NodeBlock_0) main@%Pivot_0)
                (=> main@LeafBlock_0
                    (= main@%SwitchLeaf_0 (= main@%_br8_0 main@%loop.bound3_0)))
                (=> |tuple(main@LeafBlock1_0, main@NewDefault_0)|
                    main@LeafBlock1_0)
                (=> |tuple(main@LeafBlock_0, main@NewDefault_0)|
                    main@LeafBlock_0)
                (=> main@NewDefault_0
                    (or |tuple(main@LeafBlock1_0, main@NewDefault_0)|
                        |tuple(main@LeafBlock_0, main@NewDefault_0)|))
                (=> |tuple(main@LeafBlock1_0, main@NewDefault_0)|
                    (not main@%SwitchLeaf2_0))
                (=> |tuple(main@LeafBlock_0, main@NewDefault_0)|
                    (not main@%SwitchLeaf_0))
                (=> main@_15_0 (and main@_15_0 main@NewDefault_0))
                (=> main@_15_0 (= main@%_br9_0 (+ main@%.01_0 1)))
                (=> main@_.01_1 (and main@_.01_1 main@_15_0))
                (=> (and main@_.01_1 main@_15_0) (= main@%.01_1 main@%_br9_0))
                (=> (and main@_.01_1 main@_15_0) (= main@%.0_1 main@%.1_3))
                (=> (and main@_.01_1 main@_15_0) (= main@%.01_2 main@%.01_1))
                (=> (and main@_.01_1 main@_15_0) (= main@%.0_2 main@%.0_1))
                main@_.01_1)))
  (=> a!1
      (main@_.01 main@%.01_2 main@%.0_2 main@%loop.bound3_0 main@%loop.bound_0))))
(rule (let ((a!1 (and (main@_.01 main@%.01_0
                           main@%.0_0
                           main@%loop.bound3_0
                           main@%loop.bound_0)
                true
                (= main@%_br_0 (> main@%.01_0 4))
                (=> main@_6_0 (and main@_6_0 main@_.01_0))
                (=> (and main@_6_0 main@_.01_0) (not main@%_br_0))
                (=> main@_6_0 (= main@%_br5_0 (= main@%.0_0 0)))
                (=> main@_8_0 (and main@_8_0 main@_6_0))
                (=> (and main@_8_0 main@_6_0) main@%_br5_0)
                (=> main@_8_0 (= main@%_9_0 (rem main@%.01_0 2)))
                (=> main@_8_0 (= main@%_br6_0 (= main@%_9_0 1)))
                (=> |tuple(main@_8_0, main@_11_0)| main@_8_0)
                (=> |tuple(main@_.01_0, main@_11_0)| main@_.01_0)
                (=> main@_11_0
                    (or |tuple(main@_8_0, main@_11_0)|
                        |tuple(main@_.01_0, main@_11_0)|))
                (=> |tuple(main@_8_0, main@_11_0)| main@%_br6_0)
                (=> |tuple(main@_.01_0, main@_11_0)| main@%_br_0)
                (=> main@_11_0 (= main@%_br7_0 (+ main@%.0_0 1)))
                (=> |tuple(main@_8_0, main@_.1_0)| main@_8_0)
                (=> |tuple(main@_6_0, main@_.1_0)| main@_6_0)
                (=> main@_.1_0
                    (or (and main@_.1_0 main@_11_0)
                        |tuple(main@_8_0, main@_.1_0)|
                        |tuple(main@_6_0, main@_.1_0)|))
                (=> |tuple(main@_8_0, main@_.1_0)| (not main@%_br6_0))
                (=> |tuple(main@_6_0, main@_.1_0)| (not main@%_br5_0))
                (=> (and main@_.1_0 main@_11_0) (= main@%.1_0 main@%_br7_0))
                (=> |tuple(main@_8_0, main@_.1_0)| (= main@%.1_1 0))
                (=> |tuple(main@_6_0, main@_.1_0)| (= main@%.1_2 main@%.0_0))
                (=> (and main@_.1_0 main@_11_0) (= main@%.1_3 main@%.1_0))
                (=> |tuple(main@_8_0, main@_.1_0)| (= main@%.1_3 main@%.1_1))
                (=> |tuple(main@_6_0, main@_.1_0)| (= main@%.1_3 main@%.1_2))
                (=> main@_.1_0 (= main@%_br8_0 (+ main@%.1_3 main@%.01_0)))
                (=> main@NodeBlock_0 (and main@NodeBlock_0 main@_.1_0))
                (=> main@NodeBlock_0 (= main@%Pivot_0 (< main@%_br8_0 100000)))
                (=> main@LeafBlock1_0 (and main@LeafBlock1_0 main@NodeBlock_0))
                (=> (and main@LeafBlock1_0 main@NodeBlock_0)
                    (not main@%Pivot_0))
                (=> main@LeafBlock1_0
                    (= main@%SwitchLeaf2_0 (= main@%_br8_0 main@%loop.bound_0)))
                (=> main@LeafBlock_0 (and main@LeafBlock_0 main@NodeBlock_0))
                (=> (and main@LeafBlock_0 main@NodeBlock_0) main@%Pivot_0)
                (=> main@LeafBlock_0
                    (= main@%SwitchLeaf_0 (= main@%_br8_0 main@%loop.bound3_0)))
                (=> |tuple(main@LeafBlock1_0, main@_ret_0)| main@LeafBlock1_0)
                (=> |tuple(main@LeafBlock_0, main@_ret_0)| main@LeafBlock_0)
                (=> main@_ret_0
                    (or |tuple(main@LeafBlock1_0, main@_ret_0)|
                        |tuple(main@LeafBlock_0, main@_ret_0)|))
                (=> |tuple(main@LeafBlock1_0, main@_ret_0)| main@%SwitchLeaf2_0)
                (=> |tuple(main@LeafBlock_0, main@_ret_0)| main@%SwitchLeaf_0)
                main@_ret_0)))
  (=> a!1 main@_ret)))
(query main@_ret)

